c defined variables: 15 16 17 18 19 20 21 22 23 24 25 26 27 28 29 32 33 34 35 36 37 38 39 40 41 42 43 44 45 46 47 48 49 52 53 54 55 56 57 58 59 60 
p cnf 236 329
a 1 3 5 6 7 8 9 10 11 12 0
e 30 31 50 51 15 16 17 18 19 20 21 22 23 24 25 26 27 28 29 32 33 34 35 36 37 38 39 40 41 42 43 44 45 46 47 48 49 52 53 54 55 56 57 58 59 60 201 202 203 204 205 206 207 208 209 210 211 212 213 214 215 216 217 218 219 220 221 222 223 224 225 226 227 228 229 230 231 232 233 234 235 236 0
d 2 1 3 5 6 7 8 0
d 4 1 3 5 6 7 8 0
d 13 5 6 7 8 0
d 14 9 10 11 12 0
202 -15 0
-202 15 0
203 -16 0
-203 16 0
204 -17 0
-204 17 0
205 -18 0
-205 18 0
206 -19 0
-206 19 0
207 -20 0
-207 20 0
208 -21 0
-208 21 0
209 -22 0
-209 22 0
210 -23 0
-210 23 0
211 -24 0
-211 24 0
212 -25 0
-212 25 0
213 -26 0
-213 26 0
214 -27 0
-214 27 0
215 -28 0
-215 28 0
216 -29 0
-216 29 0
217 -32 0
-217 32 0
-201 -33 0
201 33 0
218 -34 0
-218 34 0
219 -35 0
-219 35 0
220 -36 0
-220 36 0
221 -37 0
-221 37 0
222 -38 0
-222 38 0
223 -39 0
-223 39 0
224 -40 0
-224 40 0
225 -41 0
-225 41 0
226 -42 0
-226 42 0
227 -43 0
-227 43 0
228 -44 0
-228 44 0
229 -45 0
-229 45 0
230 -46 0
-230 46 0
231 -47 0
-231 47 0
232 -48 0
-232 48 0
-201 -49 0
201 49 0
233 -52 0
-233 52 0
-201 -53 0
201 53 0
234 -54 0
-234 54 0
235 -55 0
-235 55 0
236 -56 0
-236 56 0
-201 -57 0
201 57 0
201 -58 0
-201 58 0
201 -59 0
-201 59 0
201 -60 0
-201 60 0
-15 -9 0
-15 5 0
15 9 -5 0
-16 9 0
-16 -5 0
16 -9 5 0
-17 -15 0
-17 -16 0
17 15 16 0
-18 -10 0
-18 6 0
18 10 -6 0
-19 10 0
-19 -6 0
19 -10 6 0
-20 -18 0
-20 -19 0
20 18 19 0
-21 17 0
-21 20 0
21 -17 -20 0
-22 -11 0
-22 7 0
22 11 -7 0
-23 11 0
-23 -7 0
23 -11 7 0
-24 -22 0
-24 -23 0
24 22 23 0
-25 -12 0
-25 8 0
25 12 -8 0
-26 12 0
-26 -8 0
26 -12 8 0
-27 -25 0
-27 -26 0
27 25 26 0
-28 24 0
-28 27 0
28 -24 -27 0
-29 21 0
-29 28 0
29 -21 -28 0
-30 14 0
-30 -13 0
30 -14 13 0
-31 -14 0
-31 13 0
31 14 -13 0
-32 -30 0
-32 -31 0
32 30 31 0
-33 29 0
-33 -32 0
33 -29 32 0
-34 -9 0
-34 1 0
34 9 -1 0
-35 9 0
-35 -1 0
35 -9 1 0
-36 -34 0
-36 -35 0
36 34 35 0
-37 -10 0
-37 5 0
37 10 -5 0
-38 10 0
-38 -5 0
38 -10 5 0
-39 -37 0
-39 -38 0
39 37 38 0
-40 36 0
-40 39 0
40 -36 -39 0
-41 -11 0
-41 3 0
41 11 -3 0
-42 11 0
-42 -3 0
42 -11 3 0
-43 -41 0
-43 -42 0
43 41 42 0
-44 -12 0
-44 7 0
44 12 -7 0
-45 12 0
-45 -7 0
45 -12 7 0
-46 -44 0
-46 -45 0
46 44 45 0
-47 43 0
-47 46 0
47 -43 -46 0
-48 40 0
-48 47 0
48 -40 -47 0
-49 48 0
-49 31 0
49 -48 -31 0
-50 6 0
-50 -2 0
50 -6 2 0
-51 8 0
-51 -4 0
51 -8 4 0
-52 -50 0
-52 -51 0
52 50 51 0
-53 13 0
-53 -52 0
53 -13 52 0
-54 -6 0
-54 -5 0
54 6 5 0
-55 -8 0
-55 -7 0
55 8 7 0
-56 54 0
-56 55 0
56 -54 -55 0
-57 -13 0
-57 56 0
57 13 -56 0
-58 -53 0
-58 -57 0
58 53 57 0
-59 -49 0
-59 58 0
59 49 -58 0
-60 -33 0
-60 59 0
60 33 -59 0
60 0
201 0
5 -202 0
-9 -202 0
-5 9 202 0
-5 -203 0
9 -203 0
5 -9 203 0
-15 -204 0
-16 -204 0
15 16 204 0
6 -205 0
-10 -205 0
-6 10 205 0
-6 -206 0
10 -206 0
6 -10 206 0
-18 -207 0
-19 -207 0
18 19 207 0
17 -208 0
20 -208 0
-17 -20 208 0
7 -209 0
-11 -209 0
-7 11 209 0
-7 -210 0
11 -210 0
7 -11 210 0
-22 -211 0
-23 -211 0
22 23 211 0
8 -212 0
-12 -212 0
-8 12 212 0
-8 -213 0
12 -213 0
8 -12 213 0
-25 -214 0
-26 -214 0
25 26 214 0
24 -215 0
27 -215 0
-24 -27 215 0
21 -216 0
28 -216 0
-21 -28 216 0
-30 -217 0
-31 -217 0
30 31 217 0
1 -218 0
-9 -218 0
-1 9 218 0
-1 -219 0
9 -219 0
1 -9 219 0
-34 -220 0
-35 -220 0
34 35 220 0
5 -221 0
-10 -221 0
-5 10 221 0
-5 -222 0
10 -222 0
5 -10 222 0
-37 -223 0
-38 -223 0
37 38 223 0
36 -224 0
39 -224 0
-36 -39 224 0
3 -225 0
-11 -225 0
-3 11 225 0
-3 -226 0
11 -226 0
3 -11 226 0
-41 -227 0
-42 -227 0
41 42 227 0
7 -228 0
-12 -228 0
-7 12 228 0
-7 -229 0
12 -229 0
7 -12 229 0
-44 -230 0
-45 -230 0
44 45 230 0
43 -231 0
46 -231 0
-43 -46 231 0
40 -232 0
47 -232 0
-40 -47 232 0
-50 -233 0
-51 -233 0
50 51 233 0
-5 -234 0
-6 -234 0
5 6 234 0
-7 -235 0
-8 -235 0
7 8 235 0
54 -236 0
55 -236 0
-54 -55 236 0
